NAME condensation_srl_ilp
* Max problem is converted into Min one
ROWS
 N  OBJ
 L  constraint1_3480
 L  constraint1_4780
 L  constraint1_4783
 L  constraint1_4782
 L  constraint1_4786
 L  constraint1_4787
 L  constraint1_4781
 L  constraint1_4788
 L  constraint1_4785
 L  constraint1_4784
 L  constraint2_3480
 L  constraint2_3481
 L  constraint2_3482
 L  constraint2_3483
 L  constraint2_4780
 L  constraint2_4781
 L  constraint2_4782
 L  constraint2_4783
COLUMNS
    MARKER    'MARKER'                 'INTORG'
    Z_348_0_0  OBJ       -1.8355916767934799e-02
    Z_348_0_0  constraint1_3480  1
    Z_348_0_0  constraint2_3480  1
    Z_348_0_1  OBJ       -4.0158257333084463e-01
    Z_348_0_1  constraint1_3480  1
    Z_348_0_1  constraint2_3481  1
    Z_348_0_2  OBJ       -3.5372573224678092e-03
    Z_348_0_2  constraint1_3480  1
    Z_348_0_2  constraint2_3482  1
    Z_348_0_3  OBJ       -4.0193098022907343e-03
    Z_348_0_3  constraint1_3480  1
    Z_348_0_3  constraint2_3483  1
    Z_348_0_4  OBJ       -4.7250494277646193e-01
    Z_348_0_4  constraint1_3480  1
    Z_478_0_0  OBJ       -4.8691533733897188e-02
    Z_478_0_0  constraint1_4780  1
    Z_478_0_0  constraint2_4780  1
    Z_478_0_1  OBJ       -8.2411641635730748e-01
    Z_478_0_1  constraint1_4780  1
    Z_478_0_1  constraint2_4781  1
    Z_478_0_2  OBJ       -1.0787089007331810e-03
    Z_478_0_2  constraint1_4780  1
    Z_478_0_2  constraint2_4782  1
    Z_478_0_3  OBJ       -1.2311376535357108e-02
    Z_478_0_3  constraint1_4780  1
    Z_478_0_3  constraint2_4783  1
    Z_478_0_4  OBJ       -1.3801964472704840e-02
    Z_478_0_4  constraint1_4780  1
    Z_478_3_0  OBJ       -2.2978018196485182e-02
    Z_478_3_0  constraint1_4783  1
    Z_478_3_0  constraint2_4780  1
    Z_478_3_1  OBJ       -1.6164030331010115e-01
    Z_478_3_1  constraint1_4783  1
    Z_478_3_1  constraint2_4781  1
    Z_478_3_2  OBJ       -2.9916294799133228e-02
    Z_478_3_2  constraint1_4783  1
    Z_478_3_2  constraint2_4782  1
    Z_478_3_3  OBJ       -1.1393721004955875e-02
    Z_478_3_3  constraint1_4783  1
    Z_478_3_3  constraint2_4783  1
    Z_478_3_4  OBJ       -6.7407166268932461e-01
    Z_478_3_4  constraint1_4783  1
    Z_478_2_0  OBJ       -7.9064205763466136e-03
    Z_478_2_0  constraint1_4782  1
    Z_478_2_0  constraint2_4780  1
    Z_478_2_1  OBJ       -1.3070002131405202e-02
    Z_478_2_1  constraint1_4782  1
    Z_478_2_1  constraint2_4781  1
    Z_478_2_2  OBJ       -5.8760813983727428e-03
    Z_478_2_2  constraint1_4782  1
    Z_478_2_2  constraint2_4782  1
    Z_478_2_3  OBJ       -5.5511251442426747e-04
    Z_478_2_3  constraint1_4782  1
    Z_478_2_3  constraint2_4783  1
    Z_478_2_4  OBJ       -8.7259238337945111e-01
    Z_478_2_4  constraint1_4782  1
    Z_478_6_0  OBJ       -5.5835285749004137e-03
    Z_478_6_0  constraint1_4786  1
    Z_478_6_0  constraint2_4780  1
    Z_478_6_1  OBJ       -4.2273936543458703e-03
    Z_478_6_1  constraint1_4786  1
    Z_478_6_1  constraint2_4781  1
    Z_478_6_2  OBJ       -8.2925679073048500e-03
    Z_478_6_2  constraint1_4786  1
    Z_478_6_2  constraint2_4782  1
    Z_478_6_3  OBJ       -8.9021518636122031e-03
    Z_478_6_3  constraint1_4786  1
    Z_478_6_3  constraint2_4783  1
    Z_478_6_4  OBJ       -8.7299435799983671e-01
    Z_478_6_4  constraint1_4786  1
    Z_478_7_0  OBJ       -2.1620646629259264e-03
    Z_478_7_0  constraint1_4787  1
    Z_478_7_0  constraint2_4780  1
    Z_478_7_1  OBJ       -4.1384050525901606e-01
    Z_478_7_1  constraint1_4787  1
    Z_478_7_1  constraint2_4781  1
    Z_478_7_2  OBJ       -3.8989391393115247e-03
    Z_478_7_2  constraint1_4787  1
    Z_478_7_2  constraint2_4782  1
    Z_478_7_3  OBJ       -8.5091992631360202e-03
    Z_478_7_3  constraint1_4787  1
    Z_478_7_3  constraint2_4783  1
    Z_478_7_4  OBJ       -4.7158929167561064e-01
    Z_478_7_4  constraint1_4787  1
    Z_478_1_0  OBJ       -8.6356818396901149e-05
    Z_478_1_0  constraint1_4781  1
    Z_478_1_0  constraint2_4780  1
    Z_478_1_1  OBJ       -1.8572931442466180e-03
    Z_478_1_1  constraint1_4781  1
    Z_478_1_1  constraint2_4781  1
    Z_478_1_2  OBJ       -1.0246988931750150e-02
    Z_478_1_2  constraint1_4781  1
    Z_478_1_2  constraint2_4782  1
    Z_478_1_3  OBJ       -2.8623417385689292e-04
    Z_478_1_3  constraint1_4781  1
    Z_478_1_3  constraint2_4783  1
    Z_478_1_4  OBJ       -8.8752312693174940e-01
    Z_478_1_4  constraint1_4781  1
    Z_478_8_0  OBJ       -3.6838664259544622e-02
    Z_478_8_0  constraint1_4788  1
    Z_478_8_0  constraint2_4780  1
    Z_478_8_1  OBJ       -2.8251676171346557e-01
    Z_478_8_1  constraint1_4788  1
    Z_478_8_1  constraint2_4781  1
    Z_478_8_2  OBJ       -4.6199305079000072e-03
    Z_478_8_2  constraint1_4788  1
    Z_478_8_2  constraint2_4782  1
    Z_478_8_3  OBJ       -6.4373135077269023e-02
    Z_478_8_3  constraint1_4788  1
    Z_478_8_3  constraint2_4783  1
    Z_478_8_4  OBJ       -5.1165150844182072e-01
    Z_478_8_4  constraint1_4788  1
    Z_478_5_0  OBJ       -2.2978018196485182e-02
    Z_478_5_0  constraint1_4785  1
    Z_478_5_0  constraint2_4780  1
    Z_478_5_1  OBJ       -1.6164030331010115e-01
    Z_478_5_1  constraint1_4785  1
    Z_478_5_1  constraint2_4781  1
    Z_478_5_2  OBJ       -2.9916294799133228e-02
    Z_478_5_2  constraint1_4785  1
    Z_478_5_2  constraint2_4782  1
    Z_478_5_3  OBJ       -1.1393721004955875e-02
    Z_478_5_3  constraint1_4785  1
    Z_478_5_3  constraint2_4783  1
    Z_478_5_4  OBJ       -6.7407166268932461e-01
    Z_478_5_4  constraint1_4785  1
    Z_478_4_0  OBJ       -4.3085700753163455e-03
    Z_478_4_0  constraint1_4784  1
    Z_478_4_0  constraint2_4780  1
    Z_478_4_1  OBJ       -1.2764748683245215e-02
    Z_478_4_1  constraint1_4784  1
    Z_478_4_1  constraint2_4781  1
    Z_478_4_2  OBJ       -3.2107970242740723e-02
    Z_478_4_2  constraint1_4784  1
    Z_478_4_2  constraint2_4782  1
    Z_478_4_3  OBJ       -3.4603702946770397e-03
    Z_478_4_3  constraint1_4784  1
    Z_478_4_3  constraint2_4783  1
    Z_478_4_4  OBJ       -8.4735834070402072e-01
    Z_478_4_4  constraint1_4784  1
    MARKER    'MARKER'                 'INTEND'
RHS
    RHS1      constraint1_3480  1
    RHS1      constraint1_4780  1
    RHS1      constraint1_4783  1
    RHS1      constraint1_4782  1
    RHS1      constraint1_4786  1
    RHS1      constraint1_4787  1
    RHS1      constraint1_4781  1
    RHS1      constraint1_4788  1
    RHS1      constraint1_4785  1
    RHS1      constraint1_4784  1
    RHS1      constraint2_3480  1
    RHS1      constraint2_3481  1
    RHS1      constraint2_3482  1
    RHS1      constraint2_3483  1
    RHS1      constraint2_4780  1
    RHS1      constraint2_4781  1
    RHS1      constraint2_4782  1
    RHS1      constraint2_4783  1
BOUNDS
 UP BND1      Z_348_0_0  1
 UP BND1      Z_348_0_1  1
 UP BND1      Z_348_0_2  1
 UP BND1      Z_348_0_3  1
 UP BND1      Z_348_0_4  1
 UP BND1      Z_478_0_0  1
 UP BND1      Z_478_0_1  1
 UP BND1      Z_478_0_2  1
 UP BND1      Z_478_0_3  1
 UP BND1      Z_478_0_4  1
 UP BND1      Z_478_3_0  1
 UP BND1      Z_478_3_1  1
 UP BND1      Z_478_3_2  1
 UP BND1      Z_478_3_3  1
 UP BND1      Z_478_3_4  1
 UP BND1      Z_478_2_0  1
 UP BND1      Z_478_2_1  1
 UP BND1      Z_478_2_2  1
 UP BND1      Z_478_2_3  1
 UP BND1      Z_478_2_4  1
 UP BND1      Z_478_6_0  1
 UP BND1      Z_478_6_1  1
 UP BND1      Z_478_6_2  1
 UP BND1      Z_478_6_3  1
 UP BND1      Z_478_6_4  1
 UP BND1      Z_478_7_0  1
 UP BND1      Z_478_7_1  1
 UP BND1      Z_478_7_2  1
 UP BND1      Z_478_7_3  1
 UP BND1      Z_478_7_4  1
 UP BND1      Z_478_1_0  1
 UP BND1      Z_478_1_1  1
 UP BND1      Z_478_1_2  1
 UP BND1      Z_478_1_3  1
 UP BND1      Z_478_1_4  1
 UP BND1      Z_478_8_0  1
 UP BND1      Z_478_8_1  1
 UP BND1      Z_478_8_2  1
 UP BND1      Z_478_8_3  1
 UP BND1      Z_478_8_4  1
 UP BND1      Z_478_5_0  1
 UP BND1      Z_478_5_1  1
 UP BND1      Z_478_5_2  1
 UP BND1      Z_478_5_3  1
 UP BND1      Z_478_5_4  1
 UP BND1      Z_478_4_0  1
 UP BND1      Z_478_4_1  1
 UP BND1      Z_478_4_2  1
 UP BND1      Z_478_4_3  1
 UP BND1      Z_478_4_4  1
QUADOBJ
    Z_348_0_0  Z_478_0_0  -3.4122998750098145e-02
    Z_348_0_0  Z_478_3_0  -3.4122998750098145e-02
    Z_348_0_0  Z_478_6_0  -4.2603550295857988e-02
    Z_348_0_0  Z_478_1_0  -4.2603550295857988e-02
    Z_348_0_0  Z_478_8_0  -1.5817204832787164e-02
    Z_348_0_0  Z_478_5_0  -4.1406986735829905e-03
    Z_348_0_0  Z_478_4_0  -1.8665590440015840e-04
    Z_348_0_1  Z_478_0_1  -3.4122998750098145e-02
    Z_348_0_1  Z_478_3_1  -3.4122998750098145e-02
    Z_348_0_1  Z_478_6_1  -4.2603550295857988e-02
    Z_348_0_1  Z_478_1_1  -4.2603550295857988e-02
    Z_348_0_1  Z_478_8_1  -1.5817204832787164e-02
    Z_348_0_1  Z_478_5_1  -4.1406986735829905e-03
    Z_348_0_1  Z_478_4_1  -1.8665590440015840e-04
    Z_348_0_2  Z_478_0_2  -3.4122998750098145e-02
    Z_348_0_2  Z_478_3_2  -3.4122998750098145e-02
    Z_348_0_2  Z_478_6_2  -4.2603550295857988e-02
    Z_348_0_2  Z_478_1_2  -4.2603550295857988e-02
    Z_348_0_2  Z_478_8_2  -1.5817204832787164e-02
    Z_348_0_2  Z_478_5_2  -4.1406986735829905e-03
    Z_348_0_2  Z_478_4_2  -1.8665590440015840e-04
    Z_348_0_3  Z_478_0_3  -3.4122998750098145e-02
    Z_348_0_3  Z_478_3_3  -3.4122998750098145e-02
    Z_348_0_3  Z_478_6_3  -4.2603550295857988e-02
    Z_348_0_3  Z_478_1_3  -4.2603550295857988e-02
    Z_348_0_3  Z_478_8_3  -1.5817204832787164e-02
    Z_348_0_3  Z_478_5_3  -4.1406986735829905e-03
    Z_348_0_3  Z_478_4_3  -1.8665590440015840e-04
    Z_348_0_4  Z_478_0_4  -3.4122998750098145e-02
    Z_348_0_4  Z_478_3_4  -3.4122998750098145e-02
    Z_348_0_4  Z_478_6_4  -4.2603550295857988e-02
    Z_348_0_4  Z_478_1_4  -4.2603550295857988e-02
    Z_348_0_4  Z_478_8_4  -1.5817204832787164e-02
    Z_348_0_4  Z_478_5_4  -4.1406986735829905e-03
    Z_348_0_4  Z_478_4_4  -1.8665590440015840e-04
ENDATA
